NAME : portcgen-22-24
COMMENT : portcgen N=22, seed=24
TYPE : TSP
DIMENSION : 22
EDGE_WEIGHT_TYPE : EUC_2D
NODE_COORD_SECTION
1 -197888 256674
2 257596 104740
3 -170860 49662
4 686163 -48120
5 -68233 62459
6 -74982 255805
7 25470 146060
8 144571 -58614
9 79526 237206
10 25019 240673
11 -121270 -409557
12 171427 -319555
13 -158013 -109965
14 174677 249373
15 -196889 -10577
16 -13506 109225
17 39647 308577
18 92189 -461207
19 285927 -16255
20 -34139 -9131
21 73788 -3675
22 -35034 -14705
